14 134 62 144 164 17 197 59 10 35 116 122 37 168 140 150 113 70 146 112 118 83 111 44 75 26 105 172 2 15 129 130 185 139 29 61 25 82 177 80 106 100 157 178 145 71 39 159 107 154 153 87 193 142 132 1 74 72 195 117 88 89 81 127 199 166 65 7 18 68 94 54 58 189 79 102 135 125 9 196 198 76 165 187 138 22 5 6 27 90 56 33 52 24 30 180 49 121 98 20 169 47 19 109 182 141 4 156 99 137 23 149 115 151 95 114 73 86 155 97 85 186 60 131 36 147 167 143 69 11 158 124 103 84 101 104 46 136 173 3 78 108 41 110 148 92 133 0 194 31 128 152 190 175 34 188 183 43 171 93 174 179 162 119 48 160 28 176 123 77 42 191 184 163 51 181 50 21 64 13 67 161 170 63 53 66 38 32 57 55 120 12 8 126 40 16 192 96 45 91 

